NAME: ch150.heu.tour
TYPE: TOUR
COMMENT: Heuristic tour (Lin-Kernighan), length 6600.55
DIMENSION: 150
TOUR_SECTION
1
87
34
76
73
48
63
30
84
7
8
89
96
35
52
105
111
16
133
15
78
59
79
121
88
94
10
113
3
62
149
22
125
21
150
115
44
71
45
4
104
128
68
119
91
106
13
64
112
136
74
123
31
27
129
144
49
147
145
72
80
14
122
77
131
32
23
38
67
43
116
101
39
57
41
117
140
60
66
17
130
148
11
61
36
69
127
118
24
12
53
40
139
47
120
42
9
28
6
37
2
19
99
114
102
108
70
135
86
29
110
81
58
55
50
137
132
65
85
142
18
75
26
146
56
83
141
25
20
51
109
134
138
46
90
54
92
33
126
93
124
97
143
100
5
107
95
82
103
98
-1
EOF
